cpu-bind=MASK - cn-0079, task  0  0 [2129073]: mask |--------------------||||--------BBBBBBBB----|  set
Python 3.10.6
Gurobi Optimizer version 10.0.0 build v10.0.0rc2 (linux64)
Copyright (c) 2022, Gurobi Optimization, LLC
started at Thu Oct 19 13:09:38 CEST 2023
####################################################################################################
####################################################################################################
Start ROADEF
Set parameter TokenServer to value "license3.uni-paderborn.de"
####################################################################################################
####################################################################################################
Time for optimization 43200 (s)
####################################################################################################
Data read
Took 	00:00:00.028
####################################################################################################
Presolve
Anzahl Trucks in OPtimierungsproblem:  30
Itemgruppen in AP werden eher enger gemacht:  True
Start Reduction
Orinigial Anzahl:  203 736
Reduzierte Anzahl:  51 736
####################################################################################################
Load Assignment 1 solution
/scratch/hpc-prf-winf4/dwetzel/ROADEF/sol/AllPackingTight/B/RT2/output_items.csv
Took 	00:00:00.053
####################################################################################################
####################################################################################################
Simple Packing:  2
dataP.t2DSP:  1
####################################################################################################
####################################################################################################
First packing

----------------------------------------------------------------------------------------------------
3D Packing Heuristic in Truck P313097701
Item 0090018400_26102022000080 with: 10
Heuristic packed all items

----------------------------------------------------------------------------------------------------
3D Packing Heuristic in Truck P308305201
Item 0090018400_26102022000106 with: 2
Item 0090018400_26102022000158 with: 3
Item 0090018400_26102022000162 with: 6
Item 0090018400_26102022000203 with: 4
Heuristic packed all items

----------------------------------------------------------------------------------------------------
2D Packing Heuristic in Truck P320097701
Min2DVol: 20.6856 [m2]
Stack 0 with items: ['0090018400_26102022000201']
Stack 1 with items: ['0090018400_26102022000201']
Stack 2 with items: ['0090018400_26102022000201']
Stack 3 with items: ['0090018400_26102022000201']
Stack 4 with items: ['0090018400_26102022000201']
Stack 5 with items: ['0090018400_26102022000201']
Stack 6 with items: ['0090018400_26102022000201']
Stack 7 with items: ['0090018400_26102022000201']
Stack 8 with items: ['0090018400_26102022000201']
Stack 9 with items: ['0090018400_26102022000078']
Stack 10 with items: ['0090018400_26102022000201']
Stack 11 with items: ['0090018400_26102022000201']
Stack 12 with items: ['0090018400_26102022000201']
Stack 13 with items: ['0090018400_26102022000201']
Stack 14 with items: ['0090018400_26102022000201']
Stack 15 with items: ['0090018400_26102022000201']
Heuristic packed all stacks

----------------------------------------------------------------------------------------------------
2D Packing Heuristic in Truck P355097701
Min2DVol: 20.6856 [m2]
Stack 0 with items: ['0090018400_26102022000058']
Stack 1 with items: ['0090018400_26102022000058']
Stack 2 with items: ['0090018400_26102022000170']
Stack 3 with items: ['0090018400_26102022000170']
Stack 4 with items: ['0090018400_26102022000170']
Stack 5 with items: ['0090018400_26102022000170']
Stack 6 with items: ['0090018400_26102022000170']
Stack 7 with items: ['0090018400_26102022000170']
Stack 8 with items: ['0090018400_26102022000170']
Stack 9 with items: ['0090018400_26102022000170']
Stack 10 with items: ['0090018400_26102022000170']
Stack 11 with items: ['0090018400_26102022000170']
Stack 12 with items: ['0090018400_26102022000170']
Stack 13 with items: ['0090018400_26102022000170']
Stack 14 with items: ['0090018400_26102022000170']
Stack 15 with items: ['0090018400_26102022000170']
Heuristic packed all stacks

----------------------------------------------------------------------------------------------------
2D Packing Heuristic in Truck P327097701
Min2DVol: 21.97845 [m2]
Stack 0 with items: ['0090018400_26102022000067']
Stack 1 with items: ['0090018400_26102022000163']
Stack 2 with items: ['0090018400_26102022000163']
Stack 3 with items: ['0090018400_26102022000163']
Stack 4 with items: ['0090018400_26102022000163']
Stack 5 with items: ['0090018400_26102022000163']
Stack 6 with items: ['0090018400_26102022000163']
Stack 7 with items: ['0090018400_26102022000163']
Stack 8 with items: ['0090018400_26102022000163']
Stack 9 with items: ['0090018400_26102022000163']
Stack 10 with items: ['0090018400_26102022000163']
Stack 11 with items: ['0090018400_26102022000163']
Stack 12 with items: ['0090018400_26102022000163']
Stack 13 with items: ['0090018400_26102022000163']
Stack 14 with items: ['0090018400_26102022000163']
Stack 15 with items: ['0090018400_26102022000163']
Stack 16 with items: ['0090018400_26102022000163']
Heuristic packed all stacks

----------------------------------------------------------------------------------------------------
2D Packing Heuristic in Truck P341097701
Min2DVol: 21.97845 [m2]
Stack 0 with items: ['0090018400_26102022000004']
Stack 1 with items: ['0090018400_26102022000006']
Stack 2 with items: ['0090018400_26102022000004']
Stack 3 with items: ['0090018400_26102022000004']
Stack 4 with items: ['0090018400_26102022000004']
Stack 5 with items: ['0090018400_26102022000004']
Stack 6 with items: ['0090018400_26102022000004']
Stack 7 with items: ['0090018400_26102022000006']
Stack 8 with items: ['0090018400_26102022000004']
Stack 9 with items: ['0090018400_26102022000004']
Stack 10 with items: ['0090018400_26102022000004']
Stack 11 with items: ['0090018400_26102022000004']
Stack 12 with items: ['0090018400_26102022000004']
Stack 13 with items: ['0090018400_26102022000004']
Stack 14 with items: ['0090018400_26102022000004']
Stack 15 with items: ['0090018400_26102022000004']
Stack 16 with items: ['0090018400_26102022000004']
Heuristic packed all stacks

----------------------------------------------------------------------------------------------------
2D Packing Heuristic in Truck P334097701
Min2DVol: 23.271300000000004 [m2]
Stack 0 with items: ['0090018400_26102022000079']
Stack 1 with items: ['0090018400_26102022000079']
Stack 2 with items: ['0090018400_26102022000122']
Stack 3 with items: ['0090018400_26102022000122']
Stack 4 with items: ['0090018400_26102022000122']
Stack 5 with items: ['0090018400_26102022000122']
Stack 6 with items: ['0090018400_26102022000122']
Stack 7 with items: ['0090018400_26102022000122']
Stack 8 with items: ['0090018400_26102022000122']
Stack 9 with items: ['0090018400_26102022000122']
Stack 10 with items: ['0090018400_26102022000122']
Stack 11 with items: ['0090018400_26102022000122']
Stack 12 with items: ['0090018400_26102022000122']
Stack 13 with items: ['0090018400_26102022000122']
Stack 14 with items: ['0090018400_26102022000122']
Stack 15 with items: ['0090018400_26102022000122']
Stack 16 with items: ['0090018400_26102022000122']
Stack 17 with items: ['0090018400_26102022000122']
Heuristic packed all stacks

----------------------------------------------------------------------------------------------------
2D Packing Heuristic in Truck P348097701
Min2DVol: 23.271300000000004 [m2]
Stack 0 with items: ['0090018400_26102022000129']
Stack 1 with items: ['0090018400_26102022000129']
Stack 2 with items: ['0090018400_26102022000134']
Stack 3 with items: ['0090018400_26102022000134']
Stack 4 with items: ['0090018400_26102022000134']
Stack 5 with items: ['0090018400_26102022000134']
Stack 6 with items: ['0090018400_26102022000134']
Stack 7 with items: ['0090018400_26102022000134']
Stack 8 with items: ['0090018400_26102022000134']
Stack 9 with items: ['0090018400_26102022000134']
Stack 10 with items: ['0090018400_26102022000134']
Stack 11 with items: ['0090018400_26102022000134']
Stack 12 with items: ['0090018400_26102022000134']
Stack 13 with items: ['0090018400_26102022000134']
Stack 14 with items: ['0090018400_26102022000134']
Stack 15 with items: ['0090018400_26102022000134']
Stack 16 with items: ['0090018400_26102022000134']
Stack 17 with items: ['0090018400_26102022000134']
Heuristic packed all stacks

----------------------------------------------------------------------------------------------------
3D Packing Heuristic in Truck P334305201
Item 0090018400_26102022000090 with: 3
Item 0090018400_26102022000124 with: 2
Item 0090018400_26102022000136 with: 2
Item 0090018400_26102022000137 with: 2
Item 0090018400_26102022000157 with: 3
Item 0090018400_26102022000177 with: 3
Item 0090018400_26102022000193 with: 4
Item 0090018400_26102022000199 with: 7
Heuristic packed all items

----------------------------------------------------------------------------------------------------
3D Packing Heuristic in Truck P335305201
Item 0090018400_26102022000008 with: 3
Item 0090018400_26102022000012 with: 3
Item 0090018400_26102022000030 with: 7
Item 0090018400_26102022000032 with: 2
Item 0090018400_26102022000057 with: 2
Item 0090018400_26102022000133 with: 3
Item 0090018400_26102022000148 with: 4
Item 0090018400_26102022000169 with: 2
Heuristic packed all items

----------------------------------------------------------------------------------------------------
3D Packing Heuristic in Truck P349305201
Item 0090018400_26102022000009 with: 7
Item 0090018400_26102022000011 with: 2
Item 0090018400_26102022000033 with: 3
Item 0090018400_26102022000060 with: 4
Item 0090018400_26102022000082 with: 1
Item 0090018400_26102022000088 with: 2
Item 0090018400_26102022000131 with: 3
Item 0090018400_26102022000132 with: 2
Item 0090018400_26102022000190 with: 2
Heuristic packed all items

----------------------------------------------------------------------------------------------------
3D Packing Heuristic in Truck P341305201
Item 0090018400_26102022000017 with: 3
Item 0090018400_26102022000065 with: 2
Item 0090018400_26102022000066 with: 2
Item 0090018400_26102022000100 with: 3
Item 0090018400_26102022000115 with: 2
Item 0090018400_26102022000120 with: 2
Item 0090018400_26102022000143 with: 7
Item 0090018400_26102022000149 with: 4
Item 0090018400_26102022000179 with: 2
Heuristic packed all items

----------------------------------------------------------------------------------------------------
3D Packing Heuristic in Truck P342305201
Item 0090018400_26102022000029 with: 2
Item 0090018400_26102022000036 with: 4
Item 0090018400_26102022000062 with: 2
Item 0090018400_26102022000099 with: 3
Item 0090018400_26102022000127 with: 2
Item 0090018400_26102022000154 with: 7
Item 0090018400_26102022000172 with: 2
Item 0090018400_26102022000175 with: 3
Item 0090018400_26102022000178 with: 2
Heuristic packed all items

----------------------------------------------------------------------------------------------------
3D Packing Heuristic in Truck P348305201
Item 0090018400_26102022000025 with: 2
Item 0090018400_26102022000055 with: 2
Item 0090018400_26102022000056 with: 3
Item 0090018400_26102022000076 with: 4
Item 0090018400_26102022000084 with: 7
Item 0090018400_26102022000112 with: 2
Item 0090018400_26102022000116 with: 3
Item 0090018400_26102022000171 with: 2
Item 0090018400_26102022000192 with: 2
Heuristic packed all items

----------------------------------------------------------------------------------------------------
3D Packing Heuristic in Truck P355305201
Item 0090018400_26102022000023 with: 7
Item 0090018400_26102022000035 with: 2
Item 0090018400_26102022000042 with: 2
Item 0090018400_26102022000044 with: 2
Item 0090018400_26102022000045 with: 2
Item 0090018400_26102022000071 with: 4
Item 0090018400_26102022000111 with: 3
Item 0090018400_26102022000173 with: 3
Item 0090018400_26102022000189 with: 2
Heuristic packed all items

----------------------------------------------------------------------------------------------------
3D Packing Heuristic in Truck P356305201
Item 0090018400_26102022000046 with: 2
Item 0090018400_26102022000048 with: 2
Item 0090018400_26102022000070 with: 7
Item 0090018400_26102022000087 with: 3
Item 0090018400_26102022000130 with: 4
Item 0090018400_26102022000150 with: 2
Item 0090018400_26102022000156 with: 2
Item 0090018400_26102022000167 with: 2
Item 0090018400_26102022000174 with: 3
Heuristic packed all items

----------------------------------------------------------------------------------------------------
2D Packing Heuristic in Truck P314305201
Min2DVol: 13.440000000000008 [m2]
Stack 0 with items: ['0090018400_26102022000182']
Stack 1 with items: ['0090018400_26102022000182']
Stack 2 with items: ['0090018400_26102022000182']
Stack 3 with items: ['0090018400_26102022000159', '0090018400_26102022000159']
Stack 4 with items: ['0090018400_26102022000147']
Stack 5 with items: ['0090018400_26102022000147']
Stack 6 with items: ['0090018400_26102022000117']
Stack 7 with items: ['0090018400_26102022000117']
Stack 8 with items: ['0090018400_26102022000117']
Stack 9 with items: ['0090018400_26102022000110']
Stack 10 with items: ['0090018400_26102022000110']
Stack 11 with items: ['0090018400_26102022000110']
Stack 12 with items: ['0090018400_26102022000083']
Stack 13 with items: ['0090018400_26102022000083']
Stack 14 with items: ['0090018400_26102022000083']
Stack 15 with items: ['0090018400_26102022000083']
Stack 16 with items: ['0090018400_26102022000083']
Stack 17 with items: ['0090018400_26102022000083']
Stack 18 with items: ['0090018400_26102022000083']
Stack 19 with items: ['0090018400_26102022000053']
Stack 20 with items: ['0090018400_26102022000053']
Stack 21 with items: ['0090018400_26102022000053']
Stack 22 with items: ['0090018400_26102022000052']
Stack 23 with items: ['0090018400_26102022000052']
Stack 24 with items: ['0090018400_26102022000074']
Stack 25 with items: ['0090018400_26102022000074']
Stack 26 with items: ['0090018400_26102022000074']
Stack 27 with items: ['0090018400_26102022000074']
Heuristic packed all stacks

----------------------------------------------------------------------------------------------------
2D Packing Heuristic in Truck P320305201
Min2DVol: 13.440000000000008 [m2]
Stack 0 with items: ['0090018400_26102022000195']
Stack 1 with items: ['0090018400_26102022000195']
Stack 2 with items: ['0090018400_26102022000195']
Stack 3 with items: ['0090018400_26102022000164']
Stack 4 with items: ['0090018400_26102022000164']
Stack 5 with items: ['0090018400_26102022000164']
Stack 6 with items: ['0090018400_26102022000151']
Stack 7 with items: ['0090018400_26102022000151']
Stack 8 with items: ['0090018400_26102022000151']
Stack 9 with items: ['0090018400_26102022000094']
Stack 10 with items: ['0090018400_26102022000094']
Stack 11 with items: ['0090018400_26102022000094']
Stack 12 with items: ['0090018400_26102022000075']
Stack 13 with items: ['0090018400_26102022000075']
Stack 14 with items: ['0090018400_26102022000075']
Stack 15 with items: ['0090018400_26102022000075']
Stack 16 with items: ['0090018400_26102022000075']
Stack 17 with items: ['0090018400_26102022000075']
Stack 18 with items: ['0090018400_26102022000075']
Stack 19 with items: ['0090018400_26102022000040']
Stack 20 with items: ['0090018400_26102022000040']
Stack 21 with items: ['0090018400_26102022000039', '0090018400_26102022000039']
Stack 22 with items: ['0090018400_26102022000016']
Stack 23 with items: ['0090018400_26102022000016']
Stack 24 with items: ['0090018400_26102022000020']
Stack 25 with items: ['0090018400_26102022000020']
Stack 26 with items: ['0090018400_26102022000020']
Stack 27 with items: ['0090018400_26102022000020']
Heuristic packed all stacks

----------------------------------------------------------------------------------------------------
2D Packing Heuristic in Truck P321305201
Min2DVol: 13.440000000000008 [m2]
Stack 0 with items: ['0090018400_26102022000194']
Stack 1 with items: ['0090018400_26102022000194']
Stack 2 with items: ['0090018400_26102022000194']
Stack 3 with items: ['0090018400_26102022000152', '0090018400_26102022000152']
Stack 4 with items: ['0090018400_26102022000145']
Stack 5 with items: ['0090018400_26102022000145']
Stack 6 with items: ['0090018400_26102022000096']
Stack 7 with items: ['0090018400_26102022000096']
Stack 8 with items: ['0090018400_26102022000096']
Stack 9 with items: ['0090018400_26102022000054']
Stack 10 with items: ['0090018400_26102022000054']
Stack 11 with items: ['0090018400_26102022000054']
Stack 12 with items: ['0090018400_26102022000054']
Stack 13 with items: ['0090018400_26102022000054']
Stack 14 with items: ['0090018400_26102022000054']
Stack 15 with items: ['0090018400_26102022000054']
Stack 16 with items: ['0090018400_26102022000043']
Stack 17 with items: ['0090018400_26102022000043']
Stack 18 with items: ['0090018400_26102022000038']
Stack 19 with items: ['0090018400_26102022000038']
Stack 20 with items: ['0090018400_26102022000038']
Stack 21 with items: ['0090018400_26102022000022']
Stack 22 with items: ['0090018400_26102022000022']
Stack 23 with items: ['0090018400_26102022000022']
Stack 24 with items: ['0090018400_26102022000128']
Stack 25 with items: ['0090018400_26102022000128']
Stack 26 with items: ['0090018400_26102022000128']
Stack 27 with items: ['0090018400_26102022000128']
Heuristic packed all stacks

----------------------------------------------------------------------------------------------------
2D Packing Heuristic in Truck P327305201
Min2DVol: 13.440000000000008 [m2]
Stack 0 with items: ['0090018400_26102022000180']
Stack 1 with items: ['0090018400_26102022000180']
Stack 2 with items: ['0090018400_26102022000140']
Stack 3 with items: ['0090018400_26102022000140']
Stack 4 with items: ['0090018400_26102022000140']
Stack 5 with items: ['0090018400_26102022000089']
Stack 6 with items: ['0090018400_26102022000089']
Stack 7 with items: ['0090018400_26102022000049']
Stack 8 with items: ['0090018400_26102022000049']
Stack 9 with items: ['0090018400_26102022000049']
Stack 10 with items: ['0090018400_26102022000047', '0090018400_26102022000047']
Stack 11 with items: ['0090018400_26102022000041']
Stack 12 with items: ['0090018400_26102022000041']
Stack 13 with items: ['0090018400_26102022000041']
Stack 14 with items: ['0090018400_26102022000041']
Stack 15 with items: ['0090018400_26102022000041']
Stack 16 with items: ['0090018400_26102022000041']
Stack 17 with items: ['0090018400_26102022000041']
Stack 18 with items: ['0090018400_26102022000010']
Stack 19 with items: ['0090018400_26102022000010']
Stack 20 with items: ['0090018400_26102022000010']
Stack 21 with items: ['0090018400_26102022000005']
Stack 22 with items: ['0090018400_26102022000005']
Stack 23 with items: ['0090018400_26102022000005']
Stack 24 with items: ['0090018400_26102022000138']
Stack 25 with items: ['0090018400_26102022000138']
Stack 26 with items: ['0090018400_26102022000138']
Stack 27 with items: ['0090018400_26102022000138']
Heuristic packed all stacks

----------------------------------------------------------------------------------------------------
2D Packing Heuristic in Truck P328305201
Min2DVol: 13.440000000000008 [m2]
Stack 0 with items: ['0090018400_26102022000188']
Stack 1 with items: ['0090018400_26102022000188']
Stack 2 with items: ['0090018400_26102022000188']
Stack 3 with items: ['0090018400_26102022000186']
Stack 4 with items: ['0090018400_26102022000186']
Stack 5 with items: ['0090018400_26102022000186']
Stack 6 with items: ['0090018400_26102022000185']
Stack 7 with items: ['0090018400_26102022000185']
Stack 8 with items: ['0090018400_26102022000114']
Stack 9 with items: ['0090018400_26102022000114']
Stack 10 with items: ['0090018400_26102022000113']
Stack 11 with items: ['0090018400_26102022000113']
Stack 12 with items: ['0090018400_26102022000113']
Stack 13 with items: ['0090018400_26102022000113']
Stack 14 with items: ['0090018400_26102022000113']
Stack 15 with items: ['0090018400_26102022000113']
Stack 16 with items: ['0090018400_26102022000113']
Stack 17 with items: ['0090018400_26102022000072', '0090018400_26102022000072']
Stack 18 with items: ['0090018400_26102022000027']
Stack 19 with items: ['0090018400_26102022000027']
Stack 20 with items: ['0090018400_26102022000027']
Stack 21 with items: ['0090018400_26102022000001']
Stack 22 with items: ['0090018400_26102022000001']
Stack 23 with items: ['0090018400_26102022000001']
Stack 24 with items: ['0090018400_26102022000161']
Stack 25 with items: ['0090018400_26102022000161']
Stack 26 with items: ['0090018400_26102022000161']
Stack 27 with items: ['0090018400_26102022000161']
Heuristic packed all stacks

----------------------------------------------------------------------------------------------------
2D Packing Heuristic in Truck P339305201
Min2DVol: 13.440000000000008 [m2]
Stack 0 with items: ['0090018400_26102022000181']
Stack 1 with items: ['0090018400_26102022000181']
Stack 2 with items: ['0090018400_26102022000181']
Stack 3 with items: ['0090018400_26102022000176', '0090018400_26102022000176']
Stack 4 with items: ['0090018400_26102022000141']
Stack 5 with items: ['0090018400_26102022000141']
Stack 6 with items: ['0090018400_26102022000141']
Stack 7 with items: ['0090018400_26102022000141']
Stack 8 with items: ['0090018400_26102022000141']
Stack 9 with items: ['0090018400_26102022000141']
Stack 10 with items: ['0090018400_26102022000141']
Stack 11 with items: ['0090018400_26102022000123']
Stack 12 with items: ['0090018400_26102022000123']
Stack 13 with items: ['0090018400_26102022000119']
Stack 14 with items: ['0090018400_26102022000119']
Stack 15 with items: ['0090018400_26102022000119']
Stack 16 with items: ['0090018400_26102022000109']
Stack 17 with items: ['0090018400_26102022000109']
Stack 18 with items: ['0090018400_26102022000109']
Stack 19 with items: ['0090018400_26102022000061']
Stack 20 with items: ['0090018400_26102022000061']
Stack 21 with items: ['0090018400_26102022000019']
Stack 22 with items: ['0090018400_26102022000019']
Stack 23 with items: ['0090018400_26102022000019']
Stack 24 with items: ['0090018400_26102022000037']
Stack 25 with items: ['0090018400_26102022000037']
Stack 26 with items: ['0090018400_26102022000037']
Stack 27 with items: ['0090018400_26102022000037']
Heuristic packed all stacks

----------------------------------------------------------------------------------------------------
2D Packing Heuristic in Truck P346305201
Min2DVol: 13.440000000000008 [m2]
Stack 0 with items: ['0090018400_26102022000187']
Stack 1 with items: ['0090018400_26102022000187']
Stack 2 with items: ['0090018400_26102022000139']
Stack 3 with items: ['0090018400_26102022000139']
Stack 4 with items: ['0090018400_26102022000139']
Stack 5 with items: ['0090018400_26102022000107']
Stack 6 with items: ['0090018400_26102022000107']
Stack 7 with items: ['0090018400_26102022000107']
Stack 8 with items: ['0090018400_26102022000098']
Stack 9 with items: ['0090018400_26102022000098']
Stack 10 with items: ['0090018400_26102022000059']
Stack 11 with items: ['0090018400_26102022000059']
Stack 12 with items: ['0090018400_26102022000059']
Stack 13 with items: ['0090018400_26102022000051']
Stack 14 with items: ['0090018400_26102022000051']
Stack 15 with items: ['0090018400_26102022000051']
Stack 16 with items: ['0090018400_26102022000021']
Stack 17 with items: ['0090018400_26102022000021']
Stack 18 with items: ['0090018400_26102022000021']
Stack 19 with items: ['0090018400_26102022000021']
Stack 20 with items: ['0090018400_26102022000021']
Stack 21 with items: ['0090018400_26102022000021']
Stack 22 with items: ['0090018400_26102022000021']
Stack 23 with items: ['0090018400_26102022000003', '0090018400_26102022000003']
Stack 24 with items: ['0090018400_26102022000081']
Stack 25 with items: ['0090018400_26102022000081']
Stack 26 with items: ['0090018400_26102022000081']
Stack 27 with items: ['0090018400_26102022000081']
Heuristic packed all stacks

----------------------------------------------------------------------------------------------------
2D Packing Heuristic in Truck P353305201
Min2DVol: 13.440000000000008 [m2]
Stack 0 with items: ['0090018400_26102022000144']
Stack 1 with items: ['0090018400_26102022000144']
Stack 2 with items: ['0090018400_26102022000144']
Stack 3 with items: ['0090018400_26102022000126']
Stack 4 with items: ['0090018400_26102022000126']
Stack 5 with items: ['0090018400_26102022000125', '0090018400_26102022000125']
Stack 6 with items: ['0090018400_26102022000105']
Stack 7 with items: ['0090018400_26102022000105']
Stack 8 with items: ['0090018400_26102022000105']
Stack 9 with items: ['0090018400_26102022000105']
Stack 10 with items: ['0090018400_26102022000105']
Stack 11 with items: ['0090018400_26102022000105']
Stack 12 with items: ['0090018400_26102022000105']
Stack 13 with items: ['0090018400_26102022000091']
Stack 14 with items: ['0090018400_26102022000091']
Stack 15 with items: ['0090018400_26102022000063']
Stack 16 with items: ['0090018400_26102022000063']
Stack 17 with items: ['0090018400_26102022000063']
Stack 18 with items: ['0090018400_26102022000024']
Stack 19 with items: ['0090018400_26102022000024']
Stack 20 with items: ['0090018400_26102022000024']
Stack 21 with items: ['0090018400_26102022000018']
Stack 22 with items: ['0090018400_26102022000018']
Stack 23 with items: ['0090018400_26102022000018']
Stack 24 with items: ['0090018400_26102022000097']
Stack 25 with items: ['0090018400_26102022000097']
Stack 26 with items: ['0090018400_26102022000097']
Stack 27 with items: ['0090018400_26102022000097']
Heuristic packed all stacks

----------------------------------------------------------------------------------------------------
2D Packing Heuristic in Truck P313305201
Min2DVol: 14.40000000000001 [m2]
Stack 0 with items: ['0090018400_26102022000198', '0090018400_26102022000198']
Stack 1 with items: ['0090018400_26102022000121']
Stack 2 with items: ['0090018400_26102022000121']
Stack 3 with items: ['0090018400_26102022000121']
Stack 4 with items: ['0090018400_26102022000118']
Stack 5 with items: ['0090018400_26102022000118']
Stack 6 with items: ['0090018400_26102022000118']
Stack 7 with items: ['0090018400_26102022000118']
Stack 8 with items: ['0090018400_26102022000118']
Stack 9 with items: ['0090018400_26102022000118']
Stack 10 with items: ['0090018400_26102022000118']
Stack 11 with items: ['0090018400_26102022000118']
Stack 12 with items: ['0090018400_26102022000118']
Stack 13 with items: ['0090018400_26102022000104']
Stack 14 with items: ['0090018400_26102022000104']
Stack 15 with items: ['0090018400_26102022000103']
Stack 16 with items: ['0090018400_26102022000103']
Stack 17 with items: ['0090018400_26102022000103']
Stack 18 with items: ['0090018400_26102022000095']
Stack 19 with items: ['0090018400_26102022000095']
Stack 20 with items: ['0090018400_26102022000031']
Stack 21 with items: ['0090018400_26102022000031']
Stack 22 with items: ['0090018400_26102022000031']
Stack 23 with items: ['0090018400_26102022000007']
Stack 24 with items: ['0090018400_26102022000007']
Stack 25 with items: ['0090018400_26102022000007']
Stack 26 with items: ['0090018400_26102022000068']
Stack 27 with items: ['0090018400_26102022000068']
Stack 28 with items: ['0090018400_26102022000068']
Stack 29 with items: ['0090018400_26102022000068']
Heuristic packed all stacks

----------------------------------------------------------------------------------------------------
2D Packing Heuristic in Truck P332305201
Min2DVol: 14.40000000000001 [m2]
Stack 0 with items: ['0090018400_26102022000191']
Stack 1 with items: ['0090018400_26102022000191']
Stack 2 with items: ['0090018400_26102022000191']
Stack 3 with items: ['0090018400_26102022000184']
Stack 4 with items: ['0090018400_26102022000184']
Stack 5 with items: ['0090018400_26102022000184']
Stack 6 with items: ['0090018400_26102022000183']
Stack 7 with items: ['0090018400_26102022000183']
Stack 8 with items: ['0090018400_26102022000183']
Stack 9 with items: ['0090018400_26102022000155']
Stack 10 with items: ['0090018400_26102022000155']
Stack 11 with items: ['0090018400_26102022000155']
Stack 12 with items: ['0090018400_26102022000093']
Stack 13 with items: ['0090018400_26102022000093']
Stack 14 with items: ['0090018400_26102022000093']
Stack 15 with items: ['0090018400_26102022000085', '0090018400_26102022000085']
Stack 16 with items: ['0090018400_26102022000085']
Stack 17 with items: ['0090018400_26102022000015']
Stack 18 with items: ['0090018400_26102022000015']
Stack 19 with items: ['0090018400_26102022000015']
Stack 20 with items: ['0090018400_26102022000015']
Stack 21 with items: ['0090018400_26102022000015']
Stack 22 with items: ['0090018400_26102022000015']
Stack 23 with items: ['0090018400_26102022000015']
Stack 24 with items: ['0090018400_26102022000015']
Stack 25 with items: ['0090018400_26102022000015']
Stack 26 with items: ['0090018400_26102022000166']
Stack 27 with items: ['0090018400_26102022000166']
Stack 28 with items: ['0090018400_26102022000166']
Stack 29 with items: ['0090018400_26102022000166']
Heuristic packed all stacks

----------------------------------------------------------------------------------------------------
2D Packing Heuristic in Truck P311305201
Min2DVol: 15.84000000000001 [m2]
Stack 0 with items: ['0090018400_26102022000026']
Stack 1 with items: ['0090018400_26102022000026']
Stack 2 with items: ['0090018400_26102022000026']
Stack 3 with items: ['0090018400_26102022000026']
Stack 4 with items: ['0090018400_26102022000202']
Stack 5 with items: ['0090018400_26102022000202']
Stack 6 with items: ['0090018400_26102022000202']
Stack 7 with items: ['0090018400_26102022000200', '0090018400_26102022000200']
Stack 8 with items: ['0090018400_26102022000200']
Stack 9 with items: ['0090018400_26102022000168']
Stack 10 with items: ['0090018400_26102022000168']
Stack 11 with items: ['0090018400_26102022000168']
Stack 12 with items: ['0090018400_26102022000146']
Stack 13 with items: ['0090018400_26102022000146']
Stack 14 with items: ['0090018400_26102022000146']
Stack 15 with items: ['0090018400_26102022000101']
Stack 16 with items: ['0090018400_26102022000101']
Stack 17 with items: ['0090018400_26102022000101']
Stack 18 with items: ['0090018400_26102022000092']
Stack 19 with items: ['0090018400_26102022000092']
Stack 20 with items: ['0090018400_26102022000092']
Stack 21 with items: ['0090018400_26102022000069']
Stack 22 with items: ['0090018400_26102022000069']
Stack 23 with items: ['0090018400_26102022000069']
Stack 24 with items: ['0090018400_26102022000069']
Stack 25 with items: ['0090018400_26102022000069']
Stack 26 with items: ['0090018400_26102022000069']
Stack 27 with items: ['0090018400_26102022000069']
Stack 28 with items: ['0090018400_26102022000069']
Stack 29 with items: ['0090018400_26102022000069']
Stack 30 with items: ['0090018400_26102022000064']
Stack 31 with items: ['0090018400_26102022000064']
Stack 32 with items: ['0090018400_26102022000064']
Heuristic packed all stacks

----------------------------------------------------------------------------------------------------
2D Packing Heuristic in Truck P318305201
Min2DVol: 15.84000000000001 [m2]
Stack 0 with items: ['0090018400_26102022000197']
Stack 1 with items: ['0090018400_26102022000197']
Stack 2 with items: ['0090018400_26102022000197']
Stack 3 with items: ['0090018400_26102022000165', '0090018400_26102022000165']
Stack 4 with items: ['0090018400_26102022000165']
Stack 5 with items: ['0090018400_26102022000102']
Stack 6 with items: ['0090018400_26102022000102']
Stack 7 with items: ['0090018400_26102022000102']
Stack 8 with items: ['0090018400_26102022000073']
Stack 9 with items: ['0090018400_26102022000073']
Stack 10 with items: ['0090018400_26102022000073']
Stack 11 with items: ['0090018400_26102022000073']
Stack 12 with items: ['0090018400_26102022000073']
Stack 13 with items: ['0090018400_26102022000073']
Stack 14 with items: ['0090018400_26102022000073']
Stack 15 with items: ['0090018400_26102022000073']
Stack 16 with items: ['0090018400_26102022000073']
Stack 17 with items: ['0090018400_26102022000050']
Stack 18 with items: ['0090018400_26102022000050']
Stack 19 with items: ['0090018400_26102022000050']
Stack 20 with items: ['0090018400_26102022000034']
Stack 21 with items: ['0090018400_26102022000034']
Stack 22 with items: ['0090018400_26102022000034']
Stack 23 with items: ['0090018400_26102022000014']
Stack 24 with items: ['0090018400_26102022000014']
Stack 25 with items: ['0090018400_26102022000014']
Stack 26 with items: ['0090018400_26102022000002']
Stack 27 with items: ['0090018400_26102022000002']
Stack 28 with items: ['0090018400_26102022000002']
Stack 29 with items: ['0090018400_26102022000086']
Stack 30 with items: ['0090018400_26102022000086']
Stack 31 with items: ['0090018400_26102022000086']
Stack 32 with items: ['0090018400_26102022000086']
Heuristic packed all stacks

----------------------------------------------------------------------------------------------------
2D Packing Heuristic in Truck P325305201
Min2DVol: 15.84000000000001 [m2]
Stack 0 with items: ['0090018400_26102022000196']
Stack 1 with items: ['0090018400_26102022000196']
Stack 2 with items: ['0090018400_26102022000196']
Stack 3 with items: ['0090018400_26102022000160']
Stack 4 with items: ['0090018400_26102022000160']
Stack 5 with items: ['0090018400_26102022000160']
Stack 6 with items: ['0090018400_26102022000153']
Stack 7 with items: ['0090018400_26102022000153']
Stack 8 with items: ['0090018400_26102022000153']
Stack 9 with items: ['0090018400_26102022000153']
Stack 10 with items: ['0090018400_26102022000153']
Stack 11 with items: ['0090018400_26102022000153']
Stack 12 with items: ['0090018400_26102022000153']
Stack 13 with items: ['0090018400_26102022000153']
Stack 14 with items: ['0090018400_26102022000153']
Stack 15 with items: ['0090018400_26102022000135']
Stack 16 with items: ['0090018400_26102022000135']
Stack 17 with items: ['0090018400_26102022000135']
Stack 18 with items: ['0090018400_26102022000108', '0090018400_26102022000108']
Stack 19 with items: ['0090018400_26102022000108']
Stack 20 with items: ['0090018400_26102022000077']
Stack 21 with items: ['0090018400_26102022000077']
Stack 22 with items: ['0090018400_26102022000077']
Stack 23 with items: ['0090018400_26102022000028']
Stack 24 with items: ['0090018400_26102022000028']
Stack 25 with items: ['0090018400_26102022000028']
Stack 26 with items: ['0090018400_26102022000013']
Stack 27 with items: ['0090018400_26102022000013']
Stack 28 with items: ['0090018400_26102022000013']
Stack 29 with items: ['0090018400_26102022000142']
Stack 30 with items: ['0090018400_26102022000142']
Stack 31 with items: ['0090018400_26102022000142']
Stack 32 with items: ['0090018400_26102022000142']
Heuristic packed all stacks
****************************************************************************************************
****************************************************************************************************
****************************************************************************************************
Final Solution
Objective;43500.0
Transportation cost;43500.0
Inventory cost;0.0
Runtime;1.28
****************************************************************************************************
****************************************************************************************************
****************************************************************************************************
####################################################################################################
Export solution
End ROADEF
####################################################################################################
####################################################################################################
####################################################################################################
####################################################################################################
####################################################################################################
####################################################################################################
####################################################################################################

real	0m1.725s
user	0m1.443s
sys	0m0.760s
finished at Thu Oct 19 13:09:40 CEST 2023
